sat
(:binary-propagations  605
 :decisions            809
 :del-clause           198
 :final-checks         5
 :max-generation       1
 :max-memory           24.83
 :memory               21.42
 :mk-bool-var          1124
 :mk-clause            324
 :mk-clause-binary     724
 :num-allocs           23637088
 :num-checks           1
 :propagations         737
 :quant-instantiations 200
 :restarts             4
 :rlimit-count         411794
 :time                 0.09)
